TCS_Benchmarks/redos_fix/snort3_output_distinct_3135_3134_96_0.smt2
(set-logic QF_S)
(declare-const x String)
(assert (str.in.re x (re.inter  (re.union  (re.++  (re.union  (str.to.re "\u{6e}")  (str.to.re "\u{4e}")) (re.++  (re.union  (str.to.re "\u{61}")  (str.to.re "\u{41}")) (re.++  (re.union  (str.to.re "\u{6d}")  (str.to.re "\u{4d}"))  (re.union  (str.to.re "\u{65}")  (str.to.re "\u{45}"))))) (re.union  (re.++  (re.union  (str.to.re "\u{68}")  (str.to.re "\u{48}")) (re.++  (re.union  (str.to.re "\u{65}")  (str.to.re "\u{45}")) (re.++  (re.union  (str.to.re "\u{69}")  (str.to.re "\u{49}")) (re.++  (re.union  (str.to.re "\u{67}")  (str.to.re "\u{47}")) (re.++  (re.union  (str.to.re "\u{68}")  (str.to.re "\u{48}"))  (re.union  (str.to.re "\u{74}")  (str.to.re "\u{54}")))))))  (re.++  (re.union  (str.to.re "\u{77}")  (str.to.re "\u{57}")) (re.++  (re.union  (str.to.re "\u{69}")  (str.to.re "\u{49}")) (re.++  (re.union  (str.to.re "\u{64}")  (str.to.re "\u{44}")) (re.++  (re.union  (str.to.re "\u{74}")  (str.to.re "\u{54}"))  (re.union  (str.to.re "\u{68}")  (str.to.re "\u{48}")))))))) (re.+ (re.union (re.range "\u{30}" "\u{39}") (re.range "\u{41}" "\u{5a}") (re.range "\u{5f}" "\u{5f}") (re.range "\u{61}" "\u{7a}") (re.range "\u{aa}" "\u{aa}") (re.range "\u{b5}" "\u{b5}") (re.range "\u{ba}" "\u{ba}") (re.range "\u{c0}" "\u{d6}") (re.range "\u{d8}" "\u{f6}") (re.range "\u{f8}" "\u{ff}")) ) )))
(check-sat)
(get-model)