TCS_Benchmarks/redos_fix/snort3_output_distinct_3135_3134_96_0.txt
[nN][aA][mM][eE]|[hH][eE][iI][gG][hH][tT]|[wW][iI][dD][tT][hH]
\w+